50
18590

294 515
931 492
162 903
788 886
531 791
294 692
560 152
722 68
496 102
431 825
653 32
546 153
987 57
821 770
35 239
566 555
954 427
691 384
737 18
915 305
536 645
586 662
265 599
887 636
385 822
116 353
351 72
740 988
379 923
173 677
806 552
730 119
883 39
566 523
430 812
149 187
86 774
128 877
71 589
669 914
316 820
13 78
760 215
225 905
438 643
758 819
458 977
426 559
653 211
465 864
